72 36 39 42 44 41 38 40 35 37 43 68 
92 95 63 33 31 29 27 30 28 26 34 50 93 
14 47 45 5 2 12 11 15 16 73 79 78 53 55 
82 52 99 57 86 87 9 10 13 17 60 
69 98 88 6 7 8 46 3 1 4 100 70 
61 81 94 96 54 32 89 48 25 77 58 
65 83 59 75 97 74 66 
71 67 62 85 76 51 84 56 91 80 
90 
64 23 21 18 19 49 22 20 24 
